Reading model...
...model read.
creating competitive generators file...
...competitive generators recorded.
Loading data...
.. real-time data read.
Compiling instance...
...instance created.
Creating Offer Mitigation (model will solve as dispatch if TRUE)...
...storage offer mitigation file created
Converting model to MPEC...
...converted
NOTE: initial MIP solve with only storage competitive to get feasible solution
Solving...

Welcome to IBM(R) ILOG(R) CPLEX(R) Interactive Optimizer 12.10.0.0
  with Simplex, Mixed Integer & Barrier Optimizers
5725-A06 5725-A29 5724-Y48 5724-Y49 5724-Y54 5724-Y55 5655-Y21
Copyright IBM Corp. 1988, 2019.  All Rights Reserved.

Type 'help' for a list of available commands.
Type 'help' followed by a command name for more
information on commands.

CPLEX> Logfile 'cplex.log' closed.
Logfile 'C:\Users\wenmi\Desktop\competitiveMPEC\logs\tmprt2tu5vs.cplex.log' open.
CPLEX> New value for parallel optimization mode: -1
CPLEX> New value for mixed integer optimality gap tolerance: 0.01
CPLEX> New value for feasibility tolerance: 1e-09
CPLEX> New value for deterministic time limit in ticks: 50000
CPLEX> Problem 'C:\Users\wenmi\Desktop\competitiveMPEC\logs\tmp_437y7hx.pyomo.lp' read.
Read time = 0.31 sec. (27.71 ticks)
CPLEX> Problem name         : C:\Users\wenmi\Desktop\competitiveMPEC\logs\tmp_437y7hx.pyomo.lp
Objective sense      : Maximize
Variables            :  107781  [Nneg: 1,  Box: 44056,  Free: 8928,
                                 Binary: 54796]
Objective nonzeros   :   17474
Linear constraints   :  246901  [Less: 82866,  Greater: 118424,  Equal: 45611]
  Nonzeros           :  590381
  RHS nonzeros       :  134739

Variables            : Min LB: -5000.000        Max UB: 1000000.       
Objective nonzeros   : Min   : 0.008333333      Max   : 2500.000       
Linear constraints   :
  Nonzeros           : Min   : 0.008333333      Max   : 1000000.       
  RHS nonzeros       : Min   : 0.008333333      Max   : 1000000.       
CPLEX> Version identifier: 12.10.0.0 | 2019-11-26 | 843d4de2ae
CPXPARAM_Parallel                                -1
CPXPARAM_Simplex_Tolerances_Feasibility          1.0000000000000001e-09
CPXPARAM_DetTimeLimit                            50000
CPXPARAM_MIP_Tolerances_MIPGap                   0.01
Tried aggregator 3 times.
MIP Presolve eliminated 180778 rows and 40706 columns.
MIP Presolve added 6192 rows and 0 columns.
MIP Presolve modified 49211 coefficients.
Aggregator did 25816 substitutions.
Reduced MIP has 46499 rows, 39739 columns, and 136117 nonzeros.
Reduced MIP has 15633 binaries, 0 generals, 0 SOSs, and 0 indicators.
Presolve time = 0.34 sec. (330.58 ticks)
Probing fixed 746 vars, tightened 10875 bounds.
Probing time = 0.09 sec. (20.11 ticks)
Tried aggregator 2 times.
Detecting symmetries...
MIP Presolve eliminated 1682 rows and 1492 columns.
MIP Presolve modified 5553 coefficients.
Aggregator did 96 substitutions.
Reduced MIP has 44721 rows, 38151 columns, and 130973 nonzeros.
Reduced MIP has 14887 binaries, 0 generals, 0 SOSs, and 0 indicators.
Presolve time = 0.14 sec. (216.16 ticks)
Probing fixed 0 vars, tightened 759 bounds.
Probing time = 0.17 sec. (23.41 ticks)
Clique table members: 85030.
MIP emphasis: balance optimality and feasibility.
MIP search method: dynamic search.
Parallel mode: opportunistic, using up to 16 threads.
Root relaxation solution time = 0.66 sec. (525.01 ticks)

        Nodes                                         Cuts/
   Node  Left     Objective  IInf  Best Integer    Best Bound    ItCnt     Gap

      0     0     7639.6053  3607                   7639.6053    10695         
      0     0     7639.5414  3607                    Cuts: 64    10721         
      0     0     7639.3424  3607                Flowcuts: 15    10739         
      0     2     7639.3424    42                   7639.3424    10739         
Elapsed time = 5.91 sec. (7006.39 ticks, tree = 0.02 MB, solutions = 0)
    115   145     7633.8906    25                   7639.1333    11233         
    319   108     7625.7212    24                   7639.1333    11090         
    477   515     7633.2839    24                   7639.1333    13602         
    687   454     7626.5867    24                   7639.1333    13181         
    913   575     7622.8330     8                   7639.1333    14048         
   1053   626     7633.7286    20                   7639.1333    14451         
*  1089   879      integral     0     7618.5965     7639.1333    18332    0.27%
   1152   746     7617.4773     5     7618.5965     7639.1333    16076    0.27%
*  1170   822      integral     0     7627.3594     7639.1333    17696    0.15%
   1207   895     7626.8498     5     7627.3594     7639.1333    18497    0.15%

Clique cuts applied:  1
Cover cuts applied:  2
Flow cuts applied:  52

Root node processing (before b&c):
  Real time             =    5.08 sec. (6951.98 ticks)
Parallel b&c, 16 threads:
  Real time             =    7.19 sec. (2009.58 ticks)
  Sync time (average)   =    0.19 sec.
  Wait time (average)   =    0.00 sec.
                          ------------
Total (root+branch&cut) =   12.26 sec. (8961.56 ticks)

Solution pool: 2 solutions saved.

MIP - Integer optimal, tolerance (0.01/1e-06):  Objective =  7.6273593748e+03
Current MIP best bound =  7.6391333396e+03 (gap = 11.774, 0.15%)
Solution time =   12.26 sec.  Iterations = 22165  Nodes = 1209 (654)
Deterministic time = 8961.87 ticks  (730.69 ticks/sec)

CPLEX> Incumbent solution written to file 'C:\Users\wenmi\Desktop\competitiveMPEC\logs\tmpvb6v7rml.cplex.sol'.
CPLEX> NOTE: no warmstart specified for MIP iteration, default behavior is true
NOTE: resolving with all competitive generators using storage-only solution to warmstart
Solving...

Welcome to IBM(R) ILOG(R) CPLEX(R) Interactive Optimizer 12.10.0.0
  with Simplex, Mixed Integer & Barrier Optimizers
5725-A06 5725-A29 5724-Y48 5724-Y49 5724-Y54 5724-Y55 5655-Y21
Copyright IBM Corp. 1988, 2019.  All Rights Reserved.

Type 'help' for a list of available commands.
Type 'help' followed by a command name for more
information on commands.

CPLEX> Logfile 'cplex.log' closed.
Logfile 'C:\Users\wenmi\Desktop\competitiveMPEC\logs\tmp6mg1mkyc.cplex.log' open.
CPLEX> New value for parallel optimization mode: -1
CPLEX> New value for mixed integer optimality gap tolerance: 0.01
CPLEX> New value for feasibility tolerance: 1e-09
CPLEX> New value for deterministic time limit in ticks: 50000
CPLEX> Problem 'C:\Users\wenmi\Desktop\competitiveMPEC\logs\tmpl55dmyna.pyomo.lp' read.
Read time = 0.33 sec. (27.75 ticks)
CPLEX> MIP start file 'C:\Users\wenmi\Desktop\competitiveMPEC\logs\tmpcw6xpq6v.cplex.mst' read.
CPLEX> Problem name         : C:\Users\wenmi\Desktop\competitiveMPEC\logs\tmpl55dmyna.pyomo.lp
Objective sense      : Maximize
Variables            :  109221  [Nneg: 1,  Box: 45496,  Free: 8928,
                                 Binary: 54796]
Objective nonzeros   :   18866
Linear constraints   :  246901  [Less: 82866,  Greater: 118424,  Equal: 45611]
  Nonzeros           :  590381
  RHS nonzeros       :  134739

Variables            : Min LB: -5000.000        Max UB: 1000000.       
Objective nonzeros   : Min   : 0.008333333      Max   : 2500.000       
Linear constraints   :
  Nonzeros           : Min   : 0.008333333      Max   : 1000000.       
  RHS nonzeros       : Min   : 0.008333333      Max   : 1000000.       
CPLEX> Version identifier: 12.10.0.0 | 2019-11-26 | 843d4de2ae
CPXPARAM_Parallel                                -1
CPXPARAM_Simplex_Tolerances_Feasibility          1.0000000000000001e-09
CPXPARAM_DetTimeLimit                            50000
CPXPARAM_MIP_Tolerances_MIPGap                   0.01
Warning:  No solution found from 1 MIP starts.
Retaining values of one MIP start for possible repair.
Tried aggregator 3 times.
MIP Presolve eliminated 180778 rows and 42146 columns.
MIP Presolve added 6192 rows and 0 columns.
MIP Presolve modified 49211 coefficients.
Aggregator did 25816 substitutions.
Reduced MIP has 46499 rows, 39739 columns, and 136117 nonzeros.
Reduced MIP has 15633 binaries, 0 generals, 0 SOSs, and 0 indicators.
Presolve time = 0.34 sec. (331.27 ticks)
Probing fixed 746 vars, tightened 10875 bounds.
Probing time = 0.09 sec. (20.11 ticks)
Tried aggregator 2 times.
Detecting symmetries...
MIP Presolve eliminated 1682 rows and 1492 columns.
MIP Presolve modified 5553 coefficients.
Aggregator did 96 substitutions.
Reduced MIP has 44721 rows, 38151 columns, and 130973 nonzeros.
Reduced MIP has 14887 binaries, 0 generals, 0 SOSs, and 0 indicators.
Presolve time = 0.14 sec. (216.17 ticks)
Probing fixed 0 vars, tightened 759 bounds.
Probing time = 0.17 sec. (23.41 ticks)
Clique table members: 85030.
MIP emphasis: balance optimality and feasibility.
MIP search method: dynamic search.
Parallel mode: opportunistic, using up to 16 threads.
Root relaxation solution time = 0.97 sec. (2328.70 ticks)

        Nodes                                         Cuts/
   Node  Left     Objective  IInf  Best Integer    Best Bound    ItCnt     Gap

      0     0    37465.1722   609                  37465.1722    11864         
      0     0    37439.9430   609                   Cuts: 270    12151         
      0     0    37438.1057   609                   Cuts: 147    12263         
      0     0    37437.4040   609                    Cuts: 17    12295         
      0     0    37437.3428   609                     Cuts: 8    12301         
Repair heuristic found nothing.
      0    13    37421.4576   236                  37437.3114    12450         
Elapsed time = 9.05 sec. (9770.72 ticks, tree = 0.02 MB, solutions = 0)
    170    69    37415.8800   215                  37436.9013    12901         
    285   177    37384.1432   220                  37436.9013    13487         
    545   256    37422.1700   189                  37436.9013    13829         
    843   766    37346.7491   161                  37436.9013    15855         
   1066   598    37417.7277   182                  37436.9013    15151         
   1223   875    37400.8091   154                  37436.9013    16246         
   1392  1024    37381.6280   121                  37436.9013    16819         
   1505  1196    37356.1454   159                  37436.9013    17678         
   1634  1404    37376.7743   125                  37436.9013    18475         
   2223  1720    37321.4371   135                  37436.9013    20474         
Elapsed time = 25.06 sec. (12885.52 ticks, tree = 22.20 MB, solutions = 0)
   2925  2199    37301.5614    98                  37436.9013    24905         
   3498  3710    37235.3967    47                  37436.9013    45012         
   4159  3276    28354.5352    48                  37436.9013    39554         
   4706  3849    37424.6773   205                  37436.7121    47033         
*  5247+ 5290                        36568.1111    37436.7121             2.38%
   5982  4792    37418.2648   203    36568.1111    37436.7121    60378    2.38%
   6642  5382    37221.3411    76    36568.1111    37436.7121    76459    2.38%
*  7043+ 5405                        36741.3348    37436.7121             1.89%
   7120  5334    37273.4224    54    36741.3348    37436.7121    76341    1.89%

Performing restart 1

Repeating presolve.
Tried aggregator 3 times.
MIP Presolve eliminated 3312 rows and 2615 columns.
MIP Presolve modified 16016 coefficients.
Aggregator did 411 substitutions.
Reduced MIP has 40998 rows, 35125 columns, and 113614 nonzeros.
Reduced MIP has 13579 binaries, 0 generals, 0 SOSs, and 0 indicators.
Presolve time = 0.13 sec. (125.24 ticks)
Tried aggregator 3 times.
MIP Presolve eliminated 1019 rows and 892 columns.
MIP Presolve modified 6062 coefficients.
Aggregator did 44 substitutions.
Reduced MIP has 39935 rows, 34189 columns, and 110517 nonzeros.
Reduced MIP has 13155 binaries, 0 generals, 0 SOSs, and 0 indicators.
Presolve time = 0.09 sec. (101.90 ticks)
Tried aggregator 2 times.
MIP Presolve eliminated 214 rows and 215 columns.
MIP Presolve modified 3524 coefficients.
Aggregator did 42 substitutions.
Reduced MIP has 39679 rows, 33932 columns, and 109748 nonzeros.
Reduced MIP has 13060 binaries, 0 generals, 0 SOSs, and 0 indicators.
Presolve time = 0.13 sec. (179.28 ticks)
Represolve time = 0.97 sec. (550.79 ticks)
   7217     0    37437.2966   509    36741.3348     Cuts: 449   102748    1.89%
   7217     0    37437.1925   509    36741.3348     Cuts: 159   102843    1.89%
   7217     0    37436.6758   509    36741.3348     Cuts: 101   102927    1.89%
   7217     0    37435.5906   509    36741.3348     Cuts: 254   103078    1.89%
   7217     0    37435.4609   509    36741.3348      Cuts: 25   103102    1.89%
   7217     0    37435.4459   509    36741.3348      Cuts: 30   103109    1.89%
   7217     0    37435.2592   509    36741.3348       Cuts: 9   103127    1.89%
   7217     0    37435.2592   509    36741.3348   Flowcuts: 6   103130    1.89%
   7217     0    37435.2490   509    36741.3348      Cuts: 26   103151    1.89%
   7217     0    37435.1613   509    36741.3348      Cuts: 35   103162    1.89%
   7217     0    37435.0938   509    36741.3348      Cuts: 34   103203    1.89%
   7217     0    37435.0461   509    36741.3348  Flowcuts: 24   103254    1.89%
*  7217+    0                        37016.5187    37434.9927             1.13%
   7217     5    37416.6783   244    37016.5187    37434.9927   103273    1.13%
*  7221+   15                        37030.1416    37434.9927             1.09%
   7303    10    37425.9565   248    37030.1416    37434.9486   103282    1.09%
Elapsed time = 76.69 sec. (35365.28 ticks, tree = 0.03 MB, solutions = 7)
   7386    53    37406.8449   240    37030.1416    37434.9486   103658    1.09%
   7514    36    37403.3149   238    37030.1416    37434.9486   103475    1.09%
   7800   131    37384.5526   240    37030.1416    37434.9486   104433    1.09%
   8236   143    37223.9230   263    37030.1416    37434.9486   104679    1.09%
   8782   230    37344.6869   186    37030.1416    37434.9486   105239    1.09%
   9368   388    37398.1887   231    37030.1416    37434.9486   106441    1.09%
   9926   588    37318.6309   117    37030.1416    37434.9486   107609    1.09%
  10524  2260    37344.7312   157    37030.1416    37433.2414   118566    1.09%
  11110  2979    37365.9152   241    37030.1416    37430.7338   122993    1.08%
  11635  1505    37328.0030   125    37030.1416    37430.7338   114044    1.08%
Elapsed time = 120.00 sec. (44923.13 ticks, tree = 18.31 MB, solutions = 8)
  12067  2514    37333.4996   126    37030.1416    37430.7338   119979    1.08%
  12543  1987    37332.8033   167    37030.1416    37430.7338   117369    1.08%
  13131  2588    37409.1923   241    37030.1416    37430.7338   120797    1.08%
  13780  2509    37334.2121   151    37030.1416    37430.7338   119870    1.08%
  14038  3091    37362.4839   173    37030.1416    37430.7338   123058    1.08%

Clique cuts applied:  88
Cover cuts applied:  74
Implied bound cuts applied:  236
Flow cuts applied:  374
Mixed integer rounding cuts applied:  52

Root node processing (before b&c):
  Real time             =    7.98 sec. (9690.49 ticks)
Parallel b&c, 16 threads:
  Real time             =  118.30 sec. (40330.37 ticks)
  Sync time (average)   =    2.20 sec.
  Wait time (average)   =    0.05 sec.
                          ------------
Total (root+branch&cut) =  126.28 sec. (50020.86 ticks)

Solution pool: 8 solutions saved.

MIP - Deterministic time limit exceeded, integer feasible:  Objective =  3.7030141618e+04
Current MIP best bound =  3.7426867881e+04 (gap = 396.726, 1.07%)
Solution time =  126.30 sec.  Iterations = 145055  Nodes = 14065 (6370)
Deterministic time = 50021.17 ticks  (396.06 ticks/sec)

CPLEX> Incumbent solution written to file 'C:\Users\wenmi\Desktop\competitiveMPEC\logs\tmp3naezj1e.cplex.sol'.
CPLEX> Exporting results... 
